(set-info :source |printed by MathSAT|)
(declare-fun call_speed.call__COUNTER_.flby () Int)
(declare-fun call_speed.call__COUNTER_.ite2 () Int)
(declare-fun call_speed.late () Bool)
(declare-fun param_second () Bool)
(declare-fun early () Bool)
(declare-fun call_speed.diff () Int)
(declare-fun call_speed.flby () Bool)
(declare-fun call_speed.ite2 () Int)
(declare-fun param_beacon () Bool)
(declare-fun call_speed.call__COUNTER_.ite () Int)
(declare-fun call_speed.call__COUNTER_._PC_ () Int)
(declare-fun call_speed.flby2 () Bool)
(declare-fun call_speed.ite () Int)
(declare-fun call_speed.early () Bool)
(declare-fun late () Bool)
(declare-fun _OK_ () Bool)
(declare-fun call_speed.call__COUNTER_._C_ () Int)
(declare-fun call_speed.incr () Int)
(define-fun .def_269 () Bool (= call_speed.call__COUNTER_.flby 0))
(define-fun .def_267 () Bool (not call_speed.flby2))
(define-fun .def_266 () Bool (not call_speed.flby))
(define-fun .def_268 () Bool (and .def_266 .def_267))
(define-fun .def_270 () Bool (and .def_268 .def_269))
(define-fun .def_264 () Bool (= call_speed.call__COUNTER_.ite call_speed.call__COUNTER_.ite2))
(define-fun .def_262 () Bool (= call_speed.call__COUNTER_._PC_ call_speed.call__COUNTER_.flby))
(define-fun .def_259 () Bool (= call_speed.call__COUNTER_._C_ call_speed.call__COUNTER_.ite2))
(define-fun .def_256 () Bool (= call_speed.incr call_speed.ite2))
(define-fun .def_254 () Bool (= call_speed.diff call_speed.call__COUNTER_._C_))
(define-fun .def_250 () Bool (= call_speed.early call_speed.flby))
(define-fun .def_247 () Bool (= call_speed.late call_speed.flby2))
(define-fun .def_242 () Bool (= call_speed.ite call_speed.ite2))
(define-fun .def_237 () Bool (not param_second))
(define-fun .def_238 () Bool (or param_beacon .def_237))
(define-fun .def_243 () Bool (or .def_238 .def_242))
(define-fun .def_239 () Bool (not .def_238))
(define-fun .def_236 () Bool (= call_speed.ite2 1))
(define-fun .def_240 () Bool (or .def_236 .def_239))
(define-fun .def_232 () Bool (= call_speed.ite 0))
(define-fun .def_227 () Bool (not param_beacon))
(define-fun .def_228 () Bool (and param_second .def_227))
(define-fun .def_233 () Bool (or .def_228 .def_232))
(define-fun .def_229 () Bool (not .def_228))
(define-fun .def_226 () Bool (= call_speed.ite 2))
(define-fun .def_230 () Bool (or .def_226 .def_229))
(define-fun .def_211 () Bool (and param_beacon param_second))
(define-fun .def_222 () Bool (not .def_211))
(define-fun .def_218 () Int (* (- 1) call_speed.call__COUNTER_.ite))
(define-fun .def_219 () Int (+ .def_218 call_speed.incr))
(define-fun .def_220 () Int (+ call_speed.call__COUNTER_._PC_ .def_219))
(define-fun .def_221 () Bool (= .def_220 0))
(define-fun .def_223 () Bool (or .def_221 .def_222))
(define-fun .def_208 () Bool (= call_speed.call__COUNTER_._PC_ call_speed.call__COUNTER_.ite))
(define-fun .def_212 () Bool (or .def_208 .def_211))
(define-fun .def_224 () Bool (and .def_212 .def_223))
(define-fun .def_231 () Bool (and .def_224 .def_230))
(define-fun .def_234 () Bool (and .def_231 .def_233))
(define-fun .def_241 () Bool (and .def_234 .def_240))
(define-fun .def_244 () Bool (and .def_241 .def_243))
(define-fun .def_204 () Bool (= early call_speed.early))
(define-fun .def_201 () Bool (= late call_speed.late))
(define-fun .def_197 () Bool (and late early))
(define-fun .def_198 () Bool (not .def_197))
(define-fun .def_199 () Bool (= _OK_ .def_198))
(define-fun .def_202 () Bool (and .def_199 .def_201))
(define-fun .def_205 () Bool (and .def_202 .def_204))
(define-fun .def_245 () Bool (and .def_205 .def_244))
(define-fun .def_248 () Bool (and .def_245 .def_247))
(define-fun .def_251 () Bool (and .def_248 .def_250))
(define-fun .def_255 () Bool (and .def_251 .def_254))
(define-fun .def_257 () Bool (and .def_255 .def_256))
(define-fun .def_260 () Bool (and .def_257 .def_259))
(define-fun .def_263 () Bool (and .def_260 .def_262))
(define-fun .def_265 () Bool (and .def_263 .def_264))
(define-fun .def_271 () Bool (and .def_265 .def_270))
(assert .def_271)
